p cnf 51 124
c ind 49 44 47 42 48 45 39 41 46 40 0
c ind 43 1 0
c ret 25 34 35 36 37 38 26 27 28 29 0
c ret 30 31 32 33 0
2 -3 -15 -18 0
2 8 -15 -18 0
-2 18 0
-2 15 0
-2 3 -8 0
3 4 5 6 7 0
-3 -7 0
-3 -6 0
-3 -4 0
-3 -5 0
4 -29 37 -41 46 0
4 29 -37 41 -46 0
4 29 37 41 46 0
4 -29 -37 -41 -46 0
-4 -29 41 0
-4 29 -41 0
-4 37 -46 0
-4 -37 46 0
5 -29 37 -39 45 0
5 29 -37 39 -45 0
5 29 37 39 45 0
5 -29 -37 -39 -45 0
-5 -29 39 0
-5 29 -39 0
-5 37 -45 0
-5 -37 45 0
6 -29 37 -42 48 0
6 29 -37 42 -48 0
6 29 37 42 48 0
6 -29 -37 -42 -48 0
-6 -29 42 0
-6 29 -42 0
-6 37 -48 0
-6 -37 48 0
7 -29 37 -40 43 0
7 29 -37 40 -43 0
7 29 37 40 43 0
7 -29 -37 -40 -43 0
-7 -29 40 0
-7 29 -40 0
-7 37 -43 0
-7 -37 43 0
8 -9 -12 -13 48 0
8 -9 12 -13 -48 0
-8 13 0
-8 -12 -48 0
-8 9 0
-8 12 48 0
9 -11 -43 46 0
9 -10 11 -46 0
9 11 -43 -46 0
9 -10 -11 46 0
-9 11 46 0
-9 -11 -46 0
-9 10 43 0
10 44 45 0
10 -39 44 0
-10 -44 0
-10 39 -45 0
11 -40 47 0
11 43 47 0
-11 -47 0
-11 40 -43 0
12 -41 49 0
12 46 49 0
-12 -49 0
-12 41 -46 0
10 13 -14 0
13 -14 43 0
-13 14 0
-10 -13 -43 0
14 39 40 41 42 0
-14 -42 0
-14 -41 0
-14 -39 0
-14 -40 0
15 16 -17 33 0
15 17 -33 37 0
15 -17 33 37 0
15 16 17 -33 0
-15 -17 -33 0
-15 17 33 0
-15 -16 -37 0
16 -28 38 0
16 35 38 0
-16 -38 0
-16 28 -35 0
17 -26 34 0
17 30 34 0
-17 -34 0
-17 26 -30 0
18 19 20 -22 -30 0
18 -19 20 -22 30 0
-18 22 0
-18 19 30 0
-18 -20 0
-18 -19 -30 0
19 31 32 0
19 -25 31 0
-19 -31 0
-19 25 -32 0
20 -21 -35 0
20 21 35 0
-20 -21 35 0
-20 21 -35 0
21 -27 36 0
21 33 36 0
-21 -36 0
-21 27 -33 0
22 -23 -24 -37 0
-16 22 -23 -24 0
-22 24 0
-22 23 0
16 -22 37 0
23 25 26 0
-23 -25 0
-23 -26 0
24 27 28 29 0
-24 -27 0
-24 -29 0
-24 -28 0
1 2 0
-1 -2 0
50 0

